c Sudoku solution
p cnf 729 0
131 0
162 0
199 0
227 0
234 0
319 0
323 0
332 0
347 0
374 0
396 0
418 0
128 0
476 0
493 0
556 0
579 0
594 0
613 0
669 0
685 0
752 0
763 0
543 0
784 0
817 0
914 0
512 0
711 0
845 0
941 0
973 0
833 0
216 0
115 0
177 0
183 0
154 0
253 0
146 0
249 0
748 0
938 0
859 0
864 0
966 0
957 0
989 0
886 0
822 0
992 0
925 0
521 0
775 0
797 0
295 0
637 0
626 0
424 0
535 0
439 0
442 0
644 0
672 0
729 0
736 0
282 0
278 0
381 0
261 0
871 0
898 0
487 0
691 0
588 0
451 0
658 0
465 0
567 0
355 0
368 0
